# Solution for model p01_budget_0p910
# Objective value = 9.1000000000006320e-01
Risk 9.1000000000006320e-01
0 0
1 0
3 0.001
4 30.001
5 3.0002000000000002e+01
6 40.002
7 30.001
9 6.6095058539892932e+01
c(0,1)_Rl 0.001
c(0,1)_Ru 0
c(0,3)_Rl 0
c(0,3)_Ru 0
c(3,4)_Rl 0
c(3,4)_Ru 0
c(4,5)_Rl 0
c(4,5)_Ru 0
c(3,5)_Rl 0
c(3,5)_Ru 0
c(1,2)_l 0
c(1,2)_u 30
c(2,7)_Fl 0
c(2,7)_Fu 5.4361580748444238e-01
c(1,7)_Rl 0
c(1,7)_Ru 0
c(5,6)_Rl 0
c(5,6)_Ru 0
c(3,6)_Rl 0
c(3,6)_Ru 0
c(7,8)_l 0
c(7,8)_u 3.6093058539892930e+01
c(1,8)_Fl 0
c(1,8)_Fu 1.8319209625781041e-01
c(0,9)_Rl 0
c(0,9)_Ru 3.0094458539892933e+01
c(8,9)_Fl 0
c(8,9)_Fu 1.8319209625781041e-01
c(6,9)_Rl 0
c(6,9)_Ru 0
Cost 3.0095458539892935e+01
